22 23
40 25
46 36
31 19
0 37
22 42
8 41
39 49
30 33
36 15
1 47
22 41
4 38
14 42
28 18
5 48
11 14
36 35
26 32
17 40
9 26
44 22
44 8
36 23
44 5
27 36
24 25
32 45
39 36
20 18
22 38
44 43
2 3
5 9
38 1
36 37
8 30
4 37
12 37
19 33
14 5
5 28
35 45
6 27
7 3
20 42
10 22
6 14
19 42
8 19
